benchmarks/crosswords/mzn/crossword3_37.ozn
output ([(((("\n"++problem_name)++"\n")++"L:")++show(L))++"\n"]++[if problem[i,j]==0 then "*" else show(letters[fix(L[problem[i,j]])]) endif++if j==cols then "\n" else "" endif | i in 1..rows, j in 1..cols, ])++["\n"];
int: rows = 21;
int: cols = 21;
array [1..rows,1..cols] of int: problem = [|1,2,3,4,0,5,6,7,8,9,0,10,11,12,13,14,0,15,16,17,18|19,20,21,22,0,23,24,25,26,27,0,28,29,30,31,32,0,33,34,35,36|37,38,39,40,0,41,42,43,44,45,0,46,47,48,49,50,0,51,52,53,54|55,56,57,58,59,60,61,62,0,63,64,65,66,67,0,68,69,70,71,72,73|0,0,0,74,75,76,77,0,78,79,80,81,82,0,83,84,85,86,0,0,0|87,88,89,90,91,92,0,93,94,95,96,97,0,98,99,100,101,102,103,104,105|106,107,108,109,110,0,0,111,112,113,114,0,115,116,117,118,119,0,120,121,122|123,124,125,126,0,127,128,129,130,131,0,132,133,134,135,136,0,137,138,139,140|141,142,143,0,144,145,146,147,148,0,149,150,151,152,153,0,154,155,156,157,158|159,160,161,162,163,164,165,166,167,0,168,169,170,171,0,172,173,174,175,176,177|0,0,0,178,179,180,181,0,0,182,183,184,0,0,185,186,187,188,0,0,0|189,190,191,192,193,194,0,195,196,197,198,0,199,200,201,202,203,204,205,206,207|208,209,210,211,212,0,213,214,215,216,217,0,218,219,220,221,222,0,223,224,225|226,227,228,229,0,230,231,232,233,234,0,235,236,237,238,239,0,240,241,242,243|244,245,246,0,247,248,249,250,251,0,252,253,254,255,0,0,256,257,258,259,260|261,262,263,264,265,266,267,268,0,269,270,271,272,273,0,274,275,276,277,278,279|0,0,0,280,281,282,283,0,284,285,286,287,288,0,289,290,291,292,0,0,0|293,294,295,296,297,298,0,299,300,301,302,303,0,304,305,306,307,308,309,310,311|312,313,314,315,0,316,317,318,319,320,0,321,322,323,324,325,0,326,327,328,329|330,331,332,333,0,334,335,336,337,338,0,339,340,341,342,343,0,344,345,346,347|348,349,350,351,0,352,353,354,355,356,0,357,358,359,360,361,0,362,363,364,365|];
int: num_letters = 26;
array [1..num_letters] of string: letters = ["a","b","c","d","e","f","g","h","i","j","k","l","m","n","o","p","q","r","s","t","u","v","w","x","y","z"];
int: N = 365;
array [0..N] of int: L;
string: problem_name = "21.08, 21 x 21";
