benchmarks/crosswords/mzn/crossword3_37.res
REGULAR
REGULAR
REGULAR
REGULAR
REGULAR
REGULAR
REGULAR
REGULAR
REGULAR
REGULAR
REGULAR
REGULAR
REGULAR
REGULAR
REGULAR
REGULAR
REGULAR
REGULAR
REGULAR
REGULAR
REGULAR
REGULAR
REGULAR
REGULAR
REGULAR
REGULAR
REGULAR
REGULAR
REGULAR
REGULAR
REGULAR
REGULAR
REGULAR
REGULAR
REGULAR
REGULAR
REGULAR
REGULAR
REGULAR
REGULAR
REGULAR
REGULAR
REGULAR
REGULAR
REGULAR
REGULAR
REGULAR
REGULAR
REGULAR
REGULAR
REGULAR
REGULAR
REGULAR
REGULAR
REGULAR
REGULAR
REGULAR
REGULAR
REGULAR
REGULAR
REGULAR
REGULAR
REGULAR
REGULAR
REGULAR
REGULAR
REGULAR
REGULAR
REGULAR
REGULAR
REGULAR
REGULAR
REGULAR
REGULAR
REGULAR
REGULAR
REGULAR
REGULAR
REGULAR
REGULAR
REGULAR
REGULAR
REGULAR
REGULAR
REGULAR
REGULAR
REGULAR
REGULAR
REGULAR
REGULAR
REGULAR
REGULAR
REGULAR
REGULAR
REGULAR
REGULAR
REGULAR
REGULAR
REGULAR
REGULAR
REGULAR
REGULAR
REGULAR
REGULAR
REGULAR
REGULAR
REGULAR
REGULAR
REGULAR
REGULAR
REGULAR
REGULAR
REGULAR
REGULAR
REGULAR
REGULAR
REGULAR
REGULAR
REGULAR
REGULAR
REGULAR
REGULAR
REGULAR
REGULAR
REGULAR
REGULAR
REGULAR
REGULAR
REGULAR
REGULAR
REGULAR
REGULAR
REGULAR
REGULAR
REGULAR
REGULAR
REGULAR
REGULAR
REGULAR
REGULAR
REGULAR
REGULAR
REGULAR
REGULAR
REGULAR
REGULAR
REGULAR
REGULAR
REGULAR
REGULAR
L = array1d(0..365, [1, 14, 1, 5, 19, 9, 1, 14, 1, 12, 19, 12, 25, 4, 9, 12, 1, 5, 13, 5, 18, 9, 5, 1, 14, 18, 15, 12, 18, 5, 18, 5, 19, 1, 13, 12, 1, 13, 1, 13, 9, 13, 1, 5, 2, 1, 5, 23, 15, 20, 19, 4, 18, 1, 12, 1, 3, 1, 3, 9, 20, 9, 20, 2, 1, 2, 5, 11, 9, 11, 14, 5, 22, 5, 1, 4, 1, 4, 1, 4, 4, 9, 10, 19, 3, 18, 1, 9, 19, 15, 16, 1, 11, 5, 3, 14, 5, 6, 4, 5, 18, 5, 22, 1, 12, 19, 4, 5, 4, 1, 23, 1, 14, 1, 12, 18, 1, 13, 1, 10, 4, 9, 1, 21, 18, 5, 16, 18, 1, 7, 1, 8, 4, 1, 9, 1, 14, 5, 14, 1, 10, 1, 3, 18, 4, 1, 9, 12, 9, 4, 1, 25, 18, 4, 4, 9, 15, 22, 1, 19, 1, 3, 9, 12, 9, 19, 1, 2, 12, 12, 9, 20, 1, 9, 6, 6, 1, 18, 1, 5, 18, 1, 18, 1, 3, 4, 8, 1, 6, 9, 14, 9, 11, 9, 2, 5, 19, 1, 3, 19, 1, 5, 19, 18, 5, 4, 14, 21, 4, 5, 18, 1, 6, 4, 1, 12, 1, 19, 18, 21, 2, 1, 2, 14, 9, 6, 8, 19, 1, 19, 4, 5, 14, 9, 16, 19, 5, 3, 1, 16, 19, 5, 20, 1, 1, 9, 20, 14, 1, 4, 12, 1, 1, 14, 14, 1, 19, 5, 13, 1, 14, 13, 18, 1, 18, 5, 4, 14, 21, 4, 14, 1, 9, 22, 8, 7, 9, 5, 12, 19, 1, 4, 4, 5, 1, 5, 4, 5, 13, 25, 3, 1, 12, 19, 4, 1, 9, 1, 14, 1, 12, 19, 5, 20, 13, 18, 1, 23, 5, 11, 21, 12, 16, 5, 5, 22, 1, 12, 12, 21, 19, 15, 20, 1, 18, 5, 5, 12, 2, 1, 1, 9, 18, 1, 18, 15, 9, 22, 1, 18, 1, 4, 1, 18, 20, 1, 5, 14, 12, 12, 21, 3, 7, 1, 12, 21, 7, 16, 5, 5, 12, 2, 19, 20, 3, 1]);
----------

%%  runtime:       17.620 (17620.624 ms)
%%  solvetime:     0.434 (434.188 ms)
%%  solutions:     1
%%  variables:     37927
%%  propagators:   48886
%%  propagations:  793760
%%  nodes:         256
%%  failures:      59
%%  restarts:      0
%%  peak depth:    156

GECODE_TUPLESET_MEM
GECODE_TUPLESET_MEM
GECODE_TUPLESET_MEM
GECODE_TUPLESET_MEM
GECODE_TUPLESET_MEM
GECODE_TUPLESET_MEM
GECODE_TUPLESET_MEM
GECODE_TUPLESET_MEM
GECODE_TUPLESET_MEM
GECODE_TUPLESET_MEM
GECODE_TUPLESET_MEM
GECODE_TUPLESET_MEM
GECODE_TUPLESET_MEM
GECODE_TUPLESET_MEM
GECODE_TUPLESET_MEM
GECODE_TUPLESET_MEM
GECODE_TUPLESET_MEM
GECODE_TUPLESET_MEM
GECODE_TUPLESET_MEM
GECODE_TUPLESET_MEM
GECODE_TUPLESET_MEM
GECODE_TUPLESET_MEM
GECODE_TUPLESET_MEM
GECODE_TUPLESET_MEM
GECODE_TUPLESET_MEM
GECODE_TUPLESET_MEM
GECODE_TUPLESET_MEM
GECODE_TUPLESET_MEM
GECODE_TUPLESET_MEM
GECODE_TUPLESET_MEM
GECODE_TUPLESET_MEM
GECODE_TUPLESET_MEM
GECODE_TUPLESET_MEM
GECODE_TUPLESET_MEM
GECODE_TUPLESET_MEM
GECODE_TUPLESET_MEM
GECODE_TUPLESET_MEM
GECODE_TUPLESET_MEM
GECODE_TUPLESET_MEM
GECODE_TUPLESET_MEM
GECODE_TUPLESET_MEM
GECODE_TUPLESET_MEM
GECODE_TUPLESET_MEM
GECODE_TUPLESET_MEM
GECODE_TUPLESET_MEM
GECODE_TUPLESET_MEM
GECODE_TUPLESET_MEM
GECODE_TUPLESET_MEM
GECODE_TUPLESET_MEM
GECODE_TUPLESET_MEM
GECODE_TUPLESET_MEM
GECODE_TUPLESET_MEM
GECODE_TUPLESET_MEM
GECODE_TUPLESET_MEM
GECODE_TUPLESET_MEM
GECODE_TUPLESET_MEM
GECODE_TUPLESET_MEM
GECODE_TUPLESET_MEM
GECODE_TUPLESET_MEM
GECODE_TUPLESET_MEM
GECODE_TUPLESET_MEM
GECODE_TUPLESET_MEM
GECODE_TUPLESET_MEM
GECODE_TUPLESET_MEM
GECODE_TUPLESET_MEM
GECODE_TUPLESET_MEM
GECODE_TUPLESET_MEM
GECODE_TUPLESET_MEM
GECODE_TUPLESET_MEM
GECODE_TUPLESET_MEM
GECODE_TUPLESET_MEM
GECODE_TUPLESET_MEM
GECODE_TUPLESET_MEM
GECODE_TUPLESET_MEM
GECODE_TUPLESET_MEM
GECODE_TUPLESET_MEM
GECODE_TUPLESET_MEM
GECODE_TUPLESET_MEM
GECODE_TUPLESET_MEM
GECODE_TUPLESET_MEM
GECODE_TUPLESET_MEM
GECODE_TUPLESET_MEM
GECODE_TUPLESET_MEM
GECODE_TUPLESET_MEM
GECODE_TUPLESET_MEM
GECODE_TUPLESET_MEM
GECODE_TUPLESET_MEM
GECODE_TUPLESET_MEM
GECODE_TUPLESET_MEM
GECODE_TUPLESET_MEM
GECODE_TUPLESET_MEM
GECODE_TUPLESET_MEM
GECODE_TUPLESET_MEM
GECODE_TUPLESET_MEM
GECODE_TUPLESET_MEM
GECODE_TUPLESET_MEM
GECODE_TUPLESET_MEM
GECODE_TUPLESET_MEM
GECODE_TUPLESET_MEM
GECODE_TUPLESET_MEM
GECODE_TUPLESET_MEM
GECODE_TUPLESET_MEM
GECODE_TUPLESET_MEM
GECODE_TUPLESET_MEM
GECODE_TUPLESET_MEM
GECODE_TUPLESET_MEM
GECODE_TUPLESET_MEM
GECODE_TUPLESET_MEM
GECODE_TUPLESET_MEM
GECODE_TUPLESET_MEM
GECODE_TUPLESET_MEM
GECODE_TUPLESET_MEM
GECODE_TUPLESET_MEM
GECODE_TUPLESET_MEM
GECODE_TUPLESET_MEM
GECODE_TUPLESET_MEM
GECODE_TUPLESET_MEM
GECODE_TUPLESET_MEM
GECODE_TUPLESET_MEM
GECODE_TUPLESET_MEM
GECODE_TUPLESET_MEM
GECODE_TUPLESET_MEM
GECODE_TUPLESET_MEM
GECODE_TUPLESET_MEM
GECODE_TUPLESET_MEM
GECODE_TUPLESET_MEM
GECODE_TUPLESET_MEM
GECODE_TUPLESET_MEM
GECODE_TUPLESET_MEM
GECODE_TUPLESET_MEM
GECODE_TUPLESET_MEM
GECODE_TUPLESET_MEM
GECODE_TUPLESET_MEM
GECODE_TUPLESET_MEM
GECODE_TUPLESET_MEM
GECODE_TUPLESET_MEM
GECODE_TUPLESET_MEM
GECODE_TUPLESET_MEM
GECODE_TUPLESET_MEM
GECODE_TUPLESET_MEM
GECODE_TUPLESET_MEM
GECODE_TUPLESET_MEM
GECODE_TUPLESET_MEM
GECODE_TUPLESET_MEM
GECODE_TUPLESET_MEM
GECODE_TUPLESET_MEM
GECODE_TUPLESET_MEM
GECODE_TUPLESET_MEM
GECODE_TUPLESET_MEM
GECODE_TUPLESET_MEM
L = array1d(0..365, [1, 1, 18, 1, 2, 13, 1, 14, 9, 1, 13, 15, 15, 18, 5, 3, 15, 4, 1, 10, 5, 18, 9, 15, 16, 5, 18, 1, 21, 14, 2, 1, 18, 1, 16, 5, 19, 1, 14, 1, 12, 18, 1, 3, 5, 18, 19, 5, 5, 13, 19, 18, 1, 14, 11, 18, 15, 12, 12, 2, 1, 3, 11, 4, 5, 12, 1, 25, 1, 4, 21, 12, 20, 19, 6, 1, 25, 5, 1, 22, 1, 9, 12, 1, 20, 5, 19, 11, 1, 2, 15, 2, 19, 1, 12, 1, 18, 13, 2, 1, 26, 15, 15, 11, 1, 19, 9, 20, 1, 12, 25, 3, 1, 18, 12, 4, 1, 18, 5, 14, 1, 18, 3, 18, 1, 14, 4, 19, 13, 9, 18, 11, 4, 1, 4, 15, 19, 7, 1, 5, 1, 15, 18, 5, 19, 1, 21, 4, 9, 12, 1, 4, 5, 14, 2, 1, 2, 1, 18, 22, 9, 4, 5, 15, 4, 9, 19, 3, 1, 4, 1, 14, 4, 5, 2, 1, 19, 5, 1, 4, 1, 18, 1, 4, 15, 19, 1, 1, 2, 1, 18, 1, 18, 1, 20, 1, 3, 8, 5, 19, 3, 21, 18, 18, 25, 9, 14, 7, 14, 1, 9, 12, 19, 2, 18, 15, 1, 4, 3, 1, 14, 5, 4, 2, 1, 1, 7, 9, 4, 5, 3, 1, 18, 9, 2, 2, 1, 18, 11, 19, 13, 9, 14, 9, 21, 19, 5, 1, 12, 4, 1, 14, 25, 1, 12, 5, 11, 1, 26, 1, 14, 19, 5, 4, 1, 20, 5, 12, 25, 8, 1, 12, 5, 4, 19, 14, 5, 1, 11, 19, 4, 15, 18, 25, 8, 1, 3, 11, 19, 2, 5, 5, 19, 9, 19, 20, 8, 13, 9, 2, 5, 14, 3, 8, 13, 21, 12, 5, 20, 5, 5, 18, 19, 8, 5, 1, 3, 1, 12, 12, 19, 1, 20, 15, 14, 5, 18, 1, 18, 5, 12, 9, 1, 18, 1, 4, 1, 7, 5, 19, 23, 1, 9, 14, 15, 18, 9, 14, 5, 13, 13, 1, 12, 1, 2, 1, 14, 8, 1, 14, 14, 1, 19, 16, 5, 4]);
----------

%%  runtime:       2.058 (2058.019 ms)
%%  solvetime:     0.411 (411.376 ms)
%%  solutions:     1
%%  variables:     37927
%%  propagators:   48886
%%  propagations:  536941
%%  nodes:         226
%%  failures:      35
%%  restarts:      0
%%  peak depth:    171

GECODE_TUPLESET_SPEED
GECODE_TUPLESET_SPEED
GECODE_TUPLESET_SPEED
GECODE_TUPLESET_SPEED
GECODE_TUPLESET_SPEED
GECODE_TUPLESET_SPEED
GECODE_TUPLESET_SPEED
GECODE_TUPLESET_SPEED
GECODE_TUPLESET_SPEED
GECODE_TUPLESET_SPEED
GECODE_TUPLESET_SPEED
GECODE_TUPLESET_SPEED
GECODE_TUPLESET_SPEED
GECODE_TUPLESET_SPEED
GECODE_TUPLESET_SPEED
GECODE_TUPLESET_SPEED
GECODE_TUPLESET_SPEED
GECODE_TUPLESET_SPEED
GECODE_TUPLESET_SPEED
GECODE_TUPLESET_SPEED
GECODE_TUPLESET_SPEED
GECODE_TUPLESET_SPEED
GECODE_TUPLESET_SPEED
GECODE_TUPLESET_SPEED
GECODE_TUPLESET_SPEED
GECODE_TUPLESET_SPEED
GECODE_TUPLESET_SPEED
GECODE_TUPLESET_SPEED
GECODE_TUPLESET_SPEED
GECODE_TUPLESET_SPEED
GECODE_TUPLESET_SPEED
GECODE_TUPLESET_SPEED
GECODE_TUPLESET_SPEED
GECODE_TUPLESET_SPEED
GECODE_TUPLESET_SPEED
GECODE_TUPLESET_SPEED
GECODE_TUPLESET_SPEED
GECODE_TUPLESET_SPEED
GECODE_TUPLESET_SPEED
GECODE_TUPLESET_SPEED
GECODE_TUPLESET_SPEED
GECODE_TUPLESET_SPEED
GECODE_TUPLESET_SPEED
GECODE_TUPLESET_SPEED
GECODE_TUPLESET_SPEED
GECODE_TUPLESET_SPEED
GECODE_TUPLESET_SPEED
GECODE_TUPLESET_SPEED
GECODE_TUPLESET_SPEED
GECODE_TUPLESET_SPEED
GECODE_TUPLESET_SPEED
GECODE_TUPLESET_SPEED
GECODE_TUPLESET_SPEED
GECODE_TUPLESET_SPEED
GECODE_TUPLESET_SPEED
GECODE_TUPLESET_SPEED
GECODE_TUPLESET_SPEED
GECODE_TUPLESET_SPEED
GECODE_TUPLESET_SPEED
GECODE_TUPLESET_SPEED
GECODE_TUPLESET_SPEED
GECODE_TUPLESET_SPEED
GECODE_TUPLESET_SPEED
GECODE_TUPLESET_SPEED
GECODE_TUPLESET_SPEED
GECODE_TUPLESET_SPEED
GECODE_TUPLESET_SPEED
GECODE_TUPLESET_SPEED
GECODE_TUPLESET_SPEED
GECODE_TUPLESET_SPEED
GECODE_TUPLESET_SPEED
GECODE_TUPLESET_SPEED
GECODE_TUPLESET_SPEED
GECODE_TUPLESET_SPEED
GECODE_TUPLESET_SPEED
GECODE_TUPLESET_SPEED
GECODE_TUPLESET_SPEED
GECODE_TUPLESET_SPEED
GECODE_TUPLESET_SPEED
GECODE_TUPLESET_SPEED
GECODE_TUPLESET_SPEED
GECODE_TUPLESET_SPEED
GECODE_TUPLESET_SPEED
GECODE_TUPLESET_SPEED
GECODE_TUPLESET_SPEED
GECODE_TUPLESET_SPEED
GECODE_TUPLESET_SPEED
GECODE_TUPLESET_SPEED
GECODE_TUPLESET_SPEED
GECODE_TUPLESET_SPEED
GECODE_TUPLESET_SPEED
GECODE_TUPLESET_SPEED
GECODE_TUPLESET_SPEED
GECODE_TUPLESET_SPEED
GECODE_TUPLESET_SPEED
GECODE_TUPLESET_SPEED
GECODE_TUPLESET_SPEED
GECODE_TUPLESET_SPEED
GECODE_TUPLESET_SPEED
GECODE_TUPLESET_SPEED
GECODE_TUPLESET_SPEED
GECODE_TUPLESET_SPEED
GECODE_TUPLESET_SPEED
GECODE_TUPLESET_SPEED
GECODE_TUPLESET_SPEED
GECODE_TUPLESET_SPEED
GECODE_TUPLESET_SPEED
GECODE_TUPLESET_SPEED
GECODE_TUPLESET_SPEED
GECODE_TUPLESET_SPEED
GECODE_TUPLESET_SPEED
GECODE_TUPLESET_SPEED
GECODE_TUPLESET_SPEED
GECODE_TUPLESET_SPEED
GECODE_TUPLESET_SPEED
GECODE_TUPLESET_SPEED
GECODE_TUPLESET_SPEED
GECODE_TUPLESET_SPEED
GECODE_TUPLESET_SPEED
GECODE_TUPLESET_SPEED
GECODE_TUPLESET_SPEED
GECODE_TUPLESET_SPEED
GECODE_TUPLESET_SPEED
GECODE_TUPLESET_SPEED
GECODE_TUPLESET_SPEED
GECODE_TUPLESET_SPEED
GECODE_TUPLESET_SPEED
GECODE_TUPLESET_SPEED
GECODE_TUPLESET_SPEED
GECODE_TUPLESET_SPEED
GECODE_TUPLESET_SPEED
GECODE_TUPLESET_SPEED
GECODE_TUPLESET_SPEED
GECODE_TUPLESET_SPEED
GECODE_TUPLESET_SPEED
GECODE_TUPLESET_SPEED
GECODE_TUPLESET_SPEED
GECODE_TUPLESET_SPEED
GECODE_TUPLESET_SPEED
GECODE_TUPLESET_SPEED
GECODE_TUPLESET_SPEED
GECODE_TUPLESET_SPEED
GECODE_TUPLESET_SPEED
GECODE_TUPLESET_SPEED
GECODE_TUPLESET_SPEED
GECODE_TUPLESET_SPEED
GECODE_TUPLESET_SPEED
GECODE_TUPLESET_SPEED
GECODE_TUPLESET_SPEED
GECODE_TUPLESET_SPEED
L = array1d(0..365, [1, 1, 18, 1, 2, 13, 1, 14, 9, 1, 13, 15, 15, 18, 5, 3, 15, 4, 1, 10, 5, 18, 9, 15, 16, 5, 18, 1, 21, 14, 2, 1, 18, 1, 16, 5, 19, 1, 14, 1, 12, 18, 1, 3, 5, 18, 19, 5, 5, 13, 19, 18, 1, 14, 11, 18, 15, 12, 12, 2, 1, 3, 11, 4, 5, 12, 1, 25, 1, 4, 21, 12, 20, 19, 6, 1, 25, 5, 1, 22, 1, 9, 12, 1, 20, 5, 19, 11, 1, 2, 15, 2, 19, 1, 12, 1, 18, 13, 2, 1, 26, 15, 15, 11, 1, 19, 9, 20, 1, 12, 25, 3, 1, 18, 12, 4, 1, 18, 5, 14, 1, 18, 3, 18, 1, 14, 4, 19, 13, 9, 18, 11, 4, 1, 4, 15, 19, 7, 1, 5, 1, 15, 18, 5, 19, 1, 21, 4, 9, 12, 1, 4, 5, 14, 2, 1, 2, 1, 18, 22, 9, 4, 5, 15, 4, 9, 19, 3, 1, 4, 1, 14, 4, 5, 2, 1, 19, 5, 1, 4, 1, 18, 1, 4, 15, 19, 1, 1, 2, 1, 18, 1, 18, 1, 20, 1, 3, 8, 5, 19, 3, 21, 18, 18, 25, 9, 14, 7, 14, 1, 9, 12, 19, 2, 18, 15, 1, 4, 3, 1, 14, 5, 4, 2, 1, 1, 7, 9, 4, 5, 3, 1, 18, 9, 2, 2, 1, 18, 11, 19, 13, 9, 14, 9, 21, 19, 5, 1, 12, 4, 1, 14, 25, 1, 12, 5, 11, 1, 26, 1, 14, 19, 5, 4, 1, 20, 5, 12, 25, 8, 1, 12, 5, 4, 19, 14, 5, 1, 11, 19, 4, 15, 18, 25, 8, 1, 3, 11, 19, 2, 5, 5, 19, 9, 19, 20, 8, 13, 9, 2, 5, 14, 3, 8, 13, 21, 12, 5, 20, 5, 5, 18, 19, 8, 5, 1, 3, 1, 12, 12, 19, 1, 20, 15, 14, 5, 18, 1, 18, 5, 12, 9, 1, 18, 1, 4, 1, 7, 5, 19, 23, 1, 9, 14, 15, 18, 9, 14, 5, 13, 13, 1, 12, 1, 2, 1, 14, 8, 1, 14, 14, 1, 19, 16, 5, 4]);
----------

%%  runtime:       2.298 (2298.208 ms)
%%  solvetime:     0.584 (584.061 ms)
%%  solutions:     1
%%  variables:     37927
%%  propagators:   48886
%%  propagations:  542374
%%  nodes:         226
%%  failures:      35
%%  restarts:      0
%%  peak depth:    171

COMPACT_TABLE
COMPACT_TABLE
COMPACT_TABLE
COMPACT_TABLE
COMPACT_TABLE
COMPACT_TABLE
COMPACT_TABLE
COMPACT_TABLE
COMPACT_TABLE
COMPACT_TABLE
COMPACT_TABLE
COMPACT_TABLE
COMPACT_TABLE
COMPACT_TABLE
COMPACT_TABLE
COMPACT_TABLE
COMPACT_TABLE
COMPACT_TABLE
COMPACT_TABLE
COMPACT_TABLE
COMPACT_TABLE
COMPACT_TABLE
COMPACT_TABLE
COMPACT_TABLE
COMPACT_TABLE
COMPACT_TABLE
COMPACT_TABLE
COMPACT_TABLE
COMPACT_TABLE
COMPACT_TABLE
COMPACT_TABLE
COMPACT_TABLE
COMPACT_TABLE
COMPACT_TABLE
COMPACT_TABLE
COMPACT_TABLE
COMPACT_TABLE
COMPACT_TABLE
COMPACT_TABLE
COMPACT_TABLE
COMPACT_TABLE
COMPACT_TABLE
COMPACT_TABLE
COMPACT_TABLE
COMPACT_TABLE
COMPACT_TABLE
COMPACT_TABLE
COMPACT_TABLE
COMPACT_TABLE
COMPACT_TABLE
COMPACT_TABLE
COMPACT_TABLE
COMPACT_TABLE
COMPACT_TABLE
COMPACT_TABLE
COMPACT_TABLE
COMPACT_TABLE
COMPACT_TABLE
COMPACT_TABLE
COMPACT_TABLE
COMPACT_TABLE
COMPACT_TABLE
COMPACT_TABLE
COMPACT_TABLE
COMPACT_TABLE
COMPACT_TABLE
COMPACT_TABLE
COMPACT_TABLE
COMPACT_TABLE
COMPACT_TABLE
COMPACT_TABLE
COMPACT_TABLE
COMPACT_TABLE
COMPACT_TABLE
COMPACT_TABLE
COMPACT_TABLE
COMPACT_TABLE
COMPACT_TABLE
COMPACT_TABLE
COMPACT_TABLE
COMPACT_TABLE
COMPACT_TABLE
COMPACT_TABLE
COMPACT_TABLE
COMPACT_TABLE
COMPACT_TABLE
COMPACT_TABLE
COMPACT_TABLE
COMPACT_TABLE
COMPACT_TABLE
COMPACT_TABLE
COMPACT_TABLE
COMPACT_TABLE
COMPACT_TABLE
COMPACT_TABLE
COMPACT_TABLE
COMPACT_TABLE
COMPACT_TABLE
COMPACT_TABLE
COMPACT_TABLE
COMPACT_TABLE
COMPACT_TABLE
COMPACT_TABLE
COMPACT_TABLE
COMPACT_TABLE
COMPACT_TABLE
COMPACT_TABLE
COMPACT_TABLE
COMPACT_TABLE
COMPACT_TABLE
COMPACT_TABLE
COMPACT_TABLE
COMPACT_TABLE
COMPACT_TABLE
COMPACT_TABLE
COMPACT_TABLE
COMPACT_TABLE
COMPACT_TABLE
COMPACT_TABLE
COMPACT_TABLE
COMPACT_TABLE
COMPACT_TABLE
COMPACT_TABLE
COMPACT_TABLE
COMPACT_TABLE
COMPACT_TABLE
COMPACT_TABLE
COMPACT_TABLE
COMPACT_TABLE
COMPACT_TABLE
COMPACT_TABLE
COMPACT_TABLE
COMPACT_TABLE
COMPACT_TABLE
COMPACT_TABLE
COMPACT_TABLE
COMPACT_TABLE
COMPACT_TABLE
COMPACT_TABLE
COMPACT_TABLE
COMPACT_TABLE
COMPACT_TABLE
COMPACT_TABLE
COMPACT_TABLE
COMPACT_TABLE
COMPACT_TABLE
COMPACT_TABLE
COMPACT_TABLE
COMPACT_TABLE
COMPACT_TABLE
L = array1d(0..365, [1, 1, 18, 1, 2, 13, 1, 14, 9, 1, 13, 15, 15, 18, 5, 3, 15, 4, 1, 10, 5, 18, 9, 15, 16, 5, 18, 1, 21, 14, 2, 1, 18, 1, 16, 5, 19, 1, 14, 1, 12, 18, 1, 3, 5, 18, 19, 5, 5, 13, 19, 18, 1, 14, 11, 18, 15, 12, 12, 2, 1, 3, 11, 4, 5, 12, 1, 25, 1, 4, 21, 12, 20, 19, 6, 1, 25, 5, 1, 22, 1, 9, 12, 1, 20, 5, 19, 11, 1, 2, 15, 2, 19, 1, 12, 1, 18, 13, 2, 1, 26, 15, 15, 11, 1, 19, 9, 20, 1, 12, 25, 3, 1, 18, 12, 4, 1, 18, 5, 14, 1, 18, 3, 18, 1, 14, 4, 19, 13, 9, 18, 11, 4, 1, 4, 15, 19, 7, 1, 5, 1, 15, 18, 5, 19, 1, 21, 4, 9, 12, 1, 4, 5, 14, 2, 1, 2, 1, 18, 22, 9, 4, 5, 15, 4, 9, 19, 3, 1, 4, 1, 14, 4, 5, 2, 1, 19, 5, 1, 4, 1, 18, 1, 4, 15, 19, 1, 1, 2, 1, 18, 1, 18, 1, 20, 1, 3, 8, 5, 19, 3, 21, 18, 18, 25, 9, 14, 7, 14, 1, 9, 12, 19, 2, 18, 15, 1, 4, 3, 1, 14, 5, 4, 2, 1, 1, 7, 9, 4, 5, 3, 1, 18, 9, 2, 2, 1, 18, 11, 19, 13, 9, 14, 9, 21, 19, 5, 1, 12, 4, 1, 14, 25, 1, 12, 5, 11, 1, 26, 1, 14, 19, 5, 4, 1, 20, 5, 12, 25, 8, 1, 12, 5, 4, 19, 14, 5, 1, 11, 19, 4, 15, 18, 25, 8, 1, 3, 11, 19, 2, 5, 5, 19, 9, 19, 20, 8, 13, 9, 2, 5, 14, 3, 8, 13, 21, 12, 5, 20, 5, 5, 18, 19, 8, 5, 1, 3, 1, 12, 12, 19, 1, 20, 15, 14, 5, 18, 1, 18, 5, 12, 9, 1, 18, 1, 4, 1, 7, 5, 19, 23, 1, 9, 14, 15, 18, 9, 14, 5, 13, 13, 1, 12, 1, 2, 1, 14, 8, 1, 14, 14, 1, 19, 16, 5, 4]);
----------

%%  runtime:       2.533 (2533.798 ms)
%%  solvetime:     0.343 (343.312 ms)
%%  solutions:     1
%%  variables:     37927
%%  propagators:   48886
%%  propagations:  547781
%%  nodes:         226
%%  failures:      35
%%  restarts:      0
%%  peak depth:    171

